NAME : instances/clustered-diverse-tsp/instance-13.tsp
COMMENT : No Comment
TYPE : TSP
DIMENSION: 50
EDGE_WEIGHT_TYPE : EUC_2D
NODE_COORD_SECTION
1 1710 95 
2 1042 1050 
3 1599 716 
4 1680 730 
5 1809 91 
6 1189 616 
7 447 353 
8 1802 130 
9 1126 786 
10 1141 687 
11 318 431 
12 1660 619 
13 1068 974 
14 1760 793 
15 363 255 
16 1174 709 
17 1534 726 
18 1774 1030 
19 979 1007 
20 1814 868 
21 436 413 
22 949 1092 
23 1060 931 
24 391 284 
25 550 204 
26 1759 -4 
27 1063 931 
28 1731 194 
29 1051 663 
30 470 344 
31 1527 694 
32 1860 36 
33 1684 543 
34 947 1080 
35 1768 18 
36 1855 706 
37 486 293 
38 1119 1116 
39 399 374 
40 572 183 
41 936 1087 
42 1050 674 
43 476 335 
44 1737 880 
45 1033 1054 
46 937 1092 
47 1799 811 
48 1646 649 
49 321 350 
50 1650 586 
EOF
